decision_x1=[0,7];
decision_x2=[0,7];
decision_x3=[0,7];
decision_x4=[0,7];
decision_x5=[0,7];
decision_x6=[0,7];
decision_x7=[0,7];
decision_x8=[0,7];
decision_x9=[0,7];
decision_x10=[0,7];
decision_x11=[0,7];
decision_x12=[0,7];
decision_x13=[0,7];
decision_x14=[0,7];
decision_x15=[0,7];
decision_x16=[0,7];
random_y1=[0,7];
random_y2=[0,7];
random_y3=[0,7];
random_y4=[0,7];
random_y5=[0,7];
random_y6=[0,7];
random_y7=[0,7];
constraint_x2_x1=[
0,0,7.6|
0,1,7.8|
0,2,0.34|
0,3,10|
0,4,5.7|
0,5,2.9|
0,6,6.8|
0,7,0.88|
1,0,4.1|
1,1,9|
1,2,1.7|
1,3,3.9|
1,4,9.7|
1,5,2.3|
1,6,4|
1,7,2.1|
2,0,2.9|
2,1,7.1|
2,2,2.9|
2,3,1.2|
2,4,5.7|
2,5,4.3|
2,6,9.9|
2,7,0.064|
3,0,9.1|
3,1,9|
3,2,7.9|
3,3,0.62|
3,4,8.1|
3,5,0.22|
3,6,3.4|
3,7,4.7|
4,0,3.8|
4,1,6.5|
4,2,3.7|
4,3,6.2|
4,4,1.8|
4,5,5.1|
4,6,6.6|
4,7,3.6|
5,0,5.2|
5,1,9.4|
5,2,6.9|
5,3,7|
5,4,6.6|
5,5,6.9|
5,6,1.4|
5,7,0.98|
6,0,7.1|
6,1,4.6|
6,2,1.6|
6,3,1.2|
6,4,0.26|
6,5,2.2|
6,6,7.6|
6,7,7.4|
7,0,7.5|
7,1,5|
7,2,0.72|
7,3,6.1|
7,4,0.49|
7,5,2.1|
7,6,4.7|
7,7,8|
];
constraint_x3_x2=[
0,0,5.9|
0,1,6.4|
0,2,6.6|
0,3,8.2|
0,4,3.8|
0,5,0.6|
0,6,5|
0,7,5.6|
1,0,2.2|
1,1,7.5|
1,2,4.5|
1,3,8.7|
1,4,5.2|
1,5,2.8|
1,6,8.4|
1,7,7.1|
2,0,5.7|
2,1,7.5|
2,2,6|
2,3,8.4|
2,4,3.2|
2,5,4.4|
2,6,9.3|
2,7,8.6|
3,0,0.67|
3,1,1.3|
3,2,6.4|
3,3,9.9|
3,4,9.1|
3,5,9.1|
3,6,8.8|
3,7,9.1|
4,0,5.1|
4,1,5.2|
4,2,1.4|
4,3,5.9|
4,4,1.1|
4,5,7.9|
4,6,8.9|
4,7,1.8|
5,0,2.4|
5,1,8.7|
5,2,1.7|
5,3,1.6|
5,4,1.8|
5,5,1.1|
5,6,1.8|
5,7,0.61|
6,0,2.6|
6,1,8|
6,2,3.7|
6,3,1.4|
6,4,3.1|
6,5,1.6|
6,6,6.3|
6,7,0.17|
7,0,0.88|
7,1,8.9|
7,2,3.9|
7,3,0.46|
7,4,8.6|
7,5,3.6|
7,6,6.6|
7,7,9.7|
];
constraint_x4_x3=[
0,0,5.2|
0,1,0.68|
0,2,1.7|
0,3,8.4|
0,4,1.4|
0,5,6.6|
0,6,8.1|
0,7,5.9|
1,0,6.3|
1,1,6.1|
1,2,1.1|
1,3,9.3|
1,4,2.3|
1,5,4.1|
1,6,3.1|
1,7,2.3|
2,0,9.3|
2,1,4.8|
2,2,6.9|
2,3,6.5|
2,4,8.1|
2,5,8|
2,6,6.4|
2,7,4.4|
3,0,1.5|
3,1,7.8|
3,2,10|
3,3,5.2|
3,4,8.8|
3,5,5.2|
3,6,7.5|
3,7,7.2|
4,0,0.84|
4,1,9.7|
4,2,3.4|
4,3,7.2|
4,4,4.5|
4,5,3.3|
4,6,2.7|
4,7,2.1|
5,0,4.6|
5,1,0.054|
5,2,0.64|
5,3,4.4|
5,4,0.052|
5,5,5.8|
5,6,4.8|
5,7,9.8|
6,0,1.6|
6,1,4.6|
6,2,8.9|
6,3,4.2|
6,4,7.6|
6,5,0.28|
6,6,6.1|
6,7,0.3|
7,0,9.6|
7,1,2.4|
7,2,7.3|
7,3,8.1|
7,4,0.28|
7,5,2.5|
7,6,9.5|
7,7,4.3|
];
constraint_x5_x1=[
0,0,2.9|
0,1,2.1|
0,2,6.5|
0,3,4.2|
0,4,4.2|
0,5,8.7|
0,6,0.55|
0,7,1.8|
1,0,4.5|
1,1,1.2|
1,2,5.8|
1,3,4.6|
1,4,7.5|
1,5,1.1|
1,6,3.2|
1,7,4.6|
2,0,5|
2,1,5.2|
2,2,6.1|
2,3,1.2|
2,4,7.5|
2,5,1.4|
2,6,0.76|
2,7,1.7|
3,0,0.14|
3,1,5.6|
3,2,0.2|
3,3,0.57|
3,4,7|
3,5,4.1|
3,6,2.7|
3,7,3|
4,0,3|
4,1,8.4|
4,2,0.54|
4,3,9.4|
4,4,3.8|
4,5,9.3|
4,6,1.8|
4,7,9.6|
5,0,7.7|
5,1,7.6|
5,2,0.28|
5,3,9.5|
5,4,9.1|
5,5,5.7|
5,6,1.2|
5,7,2.9|
6,0,9.4|
6,1,0.39|
6,2,2.3|
6,3,7.1|
6,4,1.7|
6,5,4.9|
6,6,2.1|
6,7,9.3|
7,0,3.8|
7,1,2.4|
7,2,5|
7,3,4.9|
7,4,8.7|
7,5,3.4|
7,6,9.2|
7,7,5.4|
];
constraint_x6_x2=[
0,0,9.2|
0,1,9.4|
0,2,9.7|
0,3,0.9|
0,4,4.2|
0,5,2.9|
0,6,4.9|
0,7,6.5|
1,0,2.7|
1,1,8.1|
1,2,2.4|
1,3,7.3|
1,4,2.4|
1,5,2.8|
1,6,4.5|
1,7,9|
2,0,2.2|
2,1,3.9|
2,2,9|
2,3,7.6|
2,4,0.12|
2,5,9.6|
2,6,0.29|
2,7,6.8|
3,0,4.9|
3,1,10|
3,2,1.8|
3,3,7.4|
3,4,0.93|
3,5,8.4|
3,6,5.3|
3,7,2.6|
4,0,7.7|
4,1,2.4|
4,2,4.2|
4,3,5|
4,4,0.43|
4,5,7|
4,6,4|
4,7,6.6|
5,0,3.3|
5,1,0.27|
5,2,2.4|
5,3,5.2|
5,4,6|
5,5,3.9|
5,6,4.3|
5,7,1.8|
6,0,8.2|
6,1,6.4|
6,2,2.3|
6,3,3.1|
6,4,9|
6,5,7.6|
6,6,8.9|
6,7,7|
7,0,0.4|
7,1,6.8|
7,2,6.7|
7,3,7.6|
7,4,2.9|
7,5,8.5|
7,6,1.9|
7,7,0.37|
];
constraint_x6_x5=[
0,0,1.3|
0,1,5.8|
0,2,3|
0,3,6.4|
0,4,5.8|
0,5,0.93|
0,6,8.1|
0,7,1.5|
1,0,3.1|
1,1,8.9|
1,2,2.8|
1,3,3.8|
1,4,7.1|
1,5,4.4|
1,6,9.7|
1,7,2.1|
2,0,1.1|
2,1,3.3|
2,2,3.1|
2,3,7|
2,4,6.8|
2,5,5.2|
2,6,3.3|
2,7,6.6|
3,0,1.5|
3,1,6.8|
3,2,7.9|
3,3,9.8|
3,4,0.43|
3,5,3.5|
3,6,3.3|
3,7,0.55|
4,0,6.7|
4,1,8.6|
4,2,3.4|
4,3,0.51|
4,4,1|
4,5,5.5|
4,6,6.2|
4,7,3.5|
5,0,6.6|
5,1,1.3|
5,2,2|
5,3,4|
5,4,7.9|
5,5,6.5|
5,6,1.9|
5,7,0.0064|
6,0,9.3|
6,1,0.97|
6,2,5.8|
6,3,7.9|
6,4,7.7|
6,5,9.2|
6,6,5.8|
6,7,3.3|
7,0,1.6|
7,1,8.6|
7,2,2.9|
7,3,0.31|
7,4,7.9|
7,5,9.7|
7,6,4|
7,7,0.51|
];
constraint_x7_x3=[
0,0,3.8|
0,1,9.9|
0,2,3.2|
0,3,9.2|
0,4,3.5|
0,5,4.9|
0,6,3.5|
0,7,5.4|
1,0,1.6|
1,1,3.3|
1,2,4.2|
1,3,9.4|
1,4,2|
1,5,3.2|
1,6,3|
1,7,9.1|
2,0,7|
2,1,3|
2,2,6.7|
2,3,2.8|
2,4,3.2|
2,5,4.1|
2,6,10|
2,7,9.9|
3,0,1.8|
3,1,4.7|
3,2,4.1|
3,3,0.82|
3,4,6.5|
3,5,8.5|
3,6,9.8|
3,7,9.9|
4,0,2.9|
4,1,7.3|
4,2,0.79|
4,3,2.3|
4,4,0.77|
4,5,3.1|
4,6,0.95|
4,7,0.46|
5,0,1.6|
5,1,6.1|
5,2,0.12|
5,3,9.5|
5,4,6.1|
5,5,1.2|
5,6,1.6|
5,7,1.7|
6,0,9.5|
6,1,6.5|
6,2,6.9|
6,3,3.2|
6,4,9.3|
6,5,1.6|
6,6,6.8|
6,7,4.5|
7,0,9.1|
7,1,8.7|
7,2,8.5|
7,3,8.7|
7,4,0.44|
7,5,7.5|
7,6,6.1|
7,7,10|
];
constraint_x7_x6=[
0,0,6.4|
0,1,5.5|
0,2,9.2|
0,3,4.8|
0,4,6.1|
0,5,8.4|
0,6,9.2|
0,7,5.9|
1,0,0.58|
1,1,7.1|
1,2,0.28|
1,3,7|
1,4,7.9|
1,5,4.2|
1,6,1.4|
1,7,1|
2,0,7.2|
2,1,8|
2,2,2.9|
2,3,6.8|
2,4,4.8|
2,5,8.9|
2,6,8.2|
2,7,3|
3,0,0.64|
3,1,2.6|
3,2,3.3|
3,3,0.99|
3,4,0.28|
3,5,7.4|
3,6,3.9|
3,7,2.2|
4,0,7.8|
4,1,2.9|
4,2,9.5|
4,3,8.7|
4,4,1.4|
4,5,3|
4,6,7.3|
4,7,1.9|
5,0,6.2|
5,1,9.8|
5,2,2.7|
5,3,3.9|
5,4,7.1|
5,5,5.6|
5,6,7.7|
5,7,5|
6,0,2.3|
6,1,5.4|
6,2,7.5|
6,3,7.1|
6,4,2.2|
6,5,7.5|
6,6,6.7|
6,7,2.7|
7,0,9.8|
7,1,3.5|
7,2,9.3|
7,3,2.4|
7,4,5.4|
7,5,4.2|
7,6,4.5|
7,7,1.1|
];
constraint_x8_x4=[
0,0,9.7|
0,1,4|
0,2,3.9|
0,3,1.2|
0,4,6.6|
0,5,7.3|
0,6,6.6|
0,7,8.6|
1,0,8.7|
1,1,2.6|
1,2,3.2|
1,3,5.6|
1,4,0.66|
1,5,9.1|
1,6,4.5|
1,7,9.8|
2,0,9.8|
2,1,3.1|
2,2,0.051|
2,3,7.3|
2,4,7.6|
2,5,9.8|
2,6,4.2|
2,7,3.1|
3,0,6.8|
3,1,4.4|
3,2,2.9|
3,3,6.6|
3,4,1.3|
3,5,8|
3,6,3.8|
3,7,0.61|
4,0,2.9|
4,1,5.9|
4,2,10|
4,3,5.3|
4,4,2.8|
4,5,9|
4,6,5.1|
4,7,4.5|
5,0,2.9|
5,1,0.91|
5,2,1.6|
5,3,2.8|
5,4,8.8|
5,5,7.8|
5,6,8.6|
5,7,5.2|
6,0,9.5|
6,1,4.1|
6,2,3.4|
6,3,9.4|
6,4,7.8|
6,5,6.2|
6,6,7.8|
6,7,9.3|
7,0,5.4|
7,1,0.2|
7,2,1.7|
7,3,9.7|
7,4,8.5|
7,5,1.8|
7,6,0.3|
7,7,2.2|
];
constraint_x8_x7=[
0,0,5.7|
0,1,1.5|
0,2,5.6|
0,3,2.3|
0,4,5.2|
0,5,6.7|
0,6,0.32|
0,7,9.2|
1,0,5.1|
1,1,6|
1,2,1.7|
1,3,2.9|
1,4,3.8|
1,5,1|
1,6,5.6|
1,7,4.4|
2,0,7.5|
2,1,5.6|
2,2,5.1|
2,3,5.5|
2,4,7.2|
2,5,6.5|
2,6,8|
2,7,8.2|
3,0,6.3|
3,1,6.5|
3,2,5.7|
3,3,2.4|
3,4,0.69|
3,5,1.8|
3,6,2.5|
3,7,5.9|
4,0,6.1|
4,1,6.3|
4,2,5.6|
4,3,4.2|
4,4,8.9|
4,5,7.6|
4,6,7.6|
4,7,8.4|
5,0,2.7|
5,1,1.3|
5,2,6.3|
5,3,5.8|
5,4,4.9|
5,5,3.6|
5,6,5.5|
5,7,9.8|
6,0,1.9|
6,1,6.9|
6,2,9.3|
6,3,1.1|
6,4,8.9|
6,5,7.3|
6,6,6|
6,7,2.9|
7,0,8.5|
7,1,6.6|
7,2,6.4|
7,3,4.7|
7,4,5|
7,5,1.7|
7,6,5.5|
7,7,8.8|
];
constraint_x9_x5=[
0,0,7.4|
0,1,4.8|
0,2,7.8|
0,3,7|
0,4,8.3|
0,5,4.4|
0,6,7.7|
0,7,1|
1,0,5.9|
1,1,2.6|
1,2,8|
1,3,6.7|
1,4,6|
1,5,5.1|
1,6,0.76|
1,7,8.2|
2,0,0.82|
2,1,1|
2,2,0.6|
2,3,8.6|
2,4,3.9|
2,5,4.9|
2,6,1.5|
2,7,1.7|
3,0,0.96|
3,1,9.5|
3,2,1.8|
3,3,0.99|
3,4,7|
3,5,0.23|
3,6,9|
3,7,8.3|
4,0,5.8|
4,1,2.7|
4,2,7.5|
4,3,8.6|
4,4,4.2|
4,5,2.7|
4,6,8.7|
4,7,7.9|
5,0,3.3|
5,1,9.8|
5,2,2.1|
5,3,5.4|
5,4,6.9|
5,5,3.1|
5,6,7.9|
5,7,9.3|
6,0,2.6|
6,1,4.3|
6,2,4.5|
6,3,8.2|
6,4,1.7|
6,5,7.1|
6,6,5.9|
6,7,0.62|
7,0,1|
7,1,0.73|
7,2,6.6|
7,3,1.8|
7,4,5.5|
7,5,7.1|
7,6,7.1|
7,7,7.8|
];
constraint_x10_x6=[
0,0,5.2|
0,1,4.8|
0,2,4.5|
0,3,3.1|
0,4,4.4|
0,5,4.7|
0,6,4|
0,7,6.5|
1,0,7.3|
1,1,1.1|
1,2,7.7|
1,3,5.4|
1,4,2.5|
1,5,1.4|
1,6,2.4|
1,7,0.97|
2,0,7.5|
2,1,4.7|
2,2,8.3|
2,3,9.5|
2,4,4|
2,5,3.3|
2,6,0.84|
2,7,9.5|
3,0,1.9|
3,1,9.1|
3,2,3.2|
3,3,3.2|
3,4,0.19|
3,5,4.7|
3,6,9.8|
3,7,1.4|
4,0,5.8|
4,1,4.7|
4,2,5.4|
4,3,6.2|
4,4,7|
4,5,2.1|
4,6,0.26|
4,7,6.3|
5,0,9.7|
5,1,7.1|
5,2,6.6|
5,3,7.8|
5,4,5|
5,5,2.3|
5,6,4.5|
5,7,2.5|
6,0,9.6|
6,1,4.6|
6,2,8.1|
6,3,2.1|
6,4,7.3|
6,5,7.8|
6,6,8.4|
6,7,5.2|
7,0,5.2|
7,1,7.4|
7,2,3|
7,3,0.19|
7,4,6.7|
7,5,0.96|
7,6,1.5|
7,7,9.6|
];
constraint_x11_x7=[
0,0,4.7|
0,1,6.4|
0,2,9.3|
0,3,4.2|
0,4,9.3|
0,5,7.1|
0,6,1.1|
0,7,9.7|
1,0,5.4|
1,1,2|
1,2,6.1|
1,3,9.4|
1,4,6|
1,5,0.83|
1,6,3.4|
1,7,2.4|
2,0,1.1|
2,1,3.1|
2,2,0.35|
2,3,8.4|
2,4,9.9|
2,5,4.8|
2,6,4.1|
2,7,4.9|
3,0,6.4|
3,1,7.6|
3,2,7.9|
3,3,4.3|
3,4,1.5|
3,5,8.3|
3,6,5.4|
3,7,4.5|
4,0,4.4|
4,1,8.5|
4,2,3.5|
4,3,9.9|
4,4,9.6|
4,5,8.4|
4,6,0.061|
4,7,3.7|
5,0,6.8|
5,1,2.8|
5,2,7.2|
5,3,9.3|
5,4,5.4|
5,5,9.1|
5,6,3.1|
5,7,6.9|
6,0,6.7|
6,1,2.5|
6,2,7|
6,3,6.3|
6,4,5.9|
6,5,9.2|
6,6,1.2|
6,7,7.3|
7,0,0.7|
7,1,5.4|
7,2,4.9|
7,3,8.4|
7,4,3.1|
7,5,5.9|
7,6,5.2|
7,7,7.2|
];
constraint_x12_x8=[
0,0,7.3|
0,1,0.47|
0,2,8.3|
0,3,1.8|
0,4,4.6|
0,5,2.9|
0,6,7.3|
0,7,6.2|
1,0,4|
1,1,5.8|
1,2,10|
1,3,6.1|
1,4,0.46|
1,5,3.5|
1,6,9.8|
1,7,6.7|
2,0,3.6|
2,1,5|
2,2,5.9|
2,3,1.2|
2,4,1.8|
2,5,2.9|
2,6,0.38|
2,7,8.4|
3,0,5.9|
3,1,9.5|
3,2,8.3|
3,3,4|
3,4,2.6|
3,5,9.8|
3,6,9.3|
3,7,8.1|
4,0,7.9|
4,1,5|
4,2,3|
4,3,9.7|
4,4,3.2|
4,5,3.8|
4,6,4.9|
4,7,9.3|
5,0,0.4|
5,1,0.76|
5,2,3.9|
5,3,2.4|
5,4,4.3|
5,5,9.8|
5,6,9.3|
5,7,8|
6,0,8.3|
6,1,3|
6,2,5.3|
6,3,5.5|
6,4,1.3|
6,5,3.5|
6,6,8.1|
6,7,2.6|
7,0,1.4|
7,1,4.4|
7,2,7.8|
7,3,3|
7,4,5.3|
7,5,2.7|
7,6,8.1|
7,7,4.1|
];
constraint_x13_x9=[
0,0,1.3|
0,1,1.1|
0,2,5.7|
0,3,6.2|
0,4,2.2|
0,5,5.9|
0,6,7.4|
0,7,4.8|
1,0,6.1|
1,1,2.3|
1,2,3.5|
1,3,3.2|
1,4,1.3|
1,5,9|
1,6,1.3|
1,7,4.8|
2,0,6.8|
2,1,0.8|
2,2,4.6|
2,3,1.4|
2,4,6.4|
2,5,9.5|
2,6,6.9|
2,7,6.5|
3,0,9.2|
3,1,7.6|
3,2,8.5|
3,3,4.8|
3,4,5.3|
3,5,6|
3,6,3.4|
3,7,8.3|
4,0,4.6|
4,1,4.8|
4,2,5.7|
4,3,6.4|
4,4,5.6|
4,5,5.8|
4,6,1.3|
4,7,5.6|
5,0,8.3|
5,1,8.8|
5,2,3.9|
5,3,3.2|
5,4,8.8|
5,5,9.6|
5,6,1.3|
5,7,7.7|
6,0,5.8|
6,1,0.052|
6,2,8.7|
6,3,7.8|
6,4,4.7|
6,5,2.2|
6,6,6.7|
6,7,8.8|
7,0,1.2|
7,1,9.3|
7,2,0.37|
7,3,9.8|
7,4,5.4|
7,5,9.8|
7,6,7.2|
7,7,3.2|
];
constraint_x14_x10=[
0,0,6.2|
0,1,1.5|
0,2,4.1|
0,3,4.2|
0,4,3.8|
0,5,3.7|
0,6,6|
0,7,2.3|
1,0,1.9|
1,1,4.9|
1,2,8|
1,3,2.2|
1,4,0.75|
1,5,3|
1,6,1.3|
1,7,7.6|
2,0,2.3|
2,1,5.8|
2,2,8.3|
2,3,0.77|
2,4,8.4|
2,5,3|
2,6,3.7|
2,7,0.53|
3,0,9.8|
3,1,3|
3,2,8.1|
3,3,3.7|
3,4,8.9|
3,5,9.5|
3,6,6|
3,7,2.6|
4,0,4.6|
4,1,5.9|
4,2,0.27|
4,3,1.4|
4,4,9.9|
4,5,2.6|
4,6,8.6|
4,7,3|
5,0,7.7|
5,1,6.1|
5,2,8.5|
5,3,1.6|
5,4,2.8|
5,5,2.5|
5,6,5.5|
5,7,0.24|
6,0,2.2|
6,1,2.4|
6,2,8.3|
6,3,1.7|
6,4,8.8|
6,5,8|
6,6,9.8|
6,7,5.4|
7,0,4.8|
7,1,0.9|
7,2,8.4|
7,3,3|
7,4,1.6|
7,5,10|
7,6,1.3|
7,7,6|
];
constraint_x15_x11=[
0,0,5.5|
0,1,9.2|
0,2,6.1|
0,3,4.4|
0,4,7.1|
0,5,1.7|
0,6,4.2|
0,7,7.8|
1,0,8.9|
1,1,5.1|
1,2,4.4|
1,3,6.9|
1,4,3.4|
1,5,4.7|
1,6,4.1|
1,7,9.8|
2,0,1.5|
2,1,4.7|
2,2,3.6|
2,3,0.41|
2,4,9.9|
2,5,1.8|
2,6,2.3|
2,7,2.4|
3,0,0.89|
3,1,1.5|
3,2,0.67|
3,3,3.1|
3,4,8.9|
3,5,1.1|
3,6,4.6|
3,7,5.7|
4,0,2.6|
4,1,4.4|
4,2,0.96|
4,3,7.2|
4,4,5.6|
4,5,9.4|
4,6,9.5|
4,7,9.9|
5,0,8.2|
5,1,2|
5,2,3.5|
5,3,5.8|
5,4,2.7|
5,5,6.2|
5,6,4.1|
5,7,6.6|
6,0,4.7|
6,1,0.23|
6,2,2.9|
6,3,7.3|
6,4,7.7|
6,5,9|
6,6,7.6|
6,7,5.6|
7,0,7.5|
7,1,0.63|
7,2,6.1|
7,3,3.4|
7,4,3.9|
7,5,6.6|
7,6,2.6|
7,7,5.2|
];
constraint_x16_x12=[
0,0,8.4|
0,1,8.6|
0,2,7.6|
0,3,0.94|
0,4,6.5|
0,5,9.5|
0,6,1.5|
0,7,8.9|
1,0,2.6|
1,1,0.56|
1,2,4.9|
1,3,2|
1,4,9.2|
1,5,0.21|
1,6,0.25|
1,7,5.1|
2,0,2.7|
2,1,5.4|
2,2,1.2|
2,3,3.6|
2,4,5.5|
2,5,2.3|
2,6,3.9|
2,7,1|
3,0,2.2|
3,1,3.5|
3,2,9.8|
3,3,8.8|
3,4,4.5|
3,5,7.5|
3,6,1.1|
3,7,1.1|
4,0,5.6|
4,1,8.4|
4,2,6.3|
4,3,8.9|
4,4,3.9|
4,5,5.4|
4,6,8.8|
4,7,7.6|
5,0,3.4|
5,1,8.6|
5,2,1.4|
5,3,9.5|
5,4,9.9|
5,5,8.2|
5,6,9.5|
5,7,2.3|
6,0,8|
6,1,0.34|
6,2,1.1|
6,3,3.4|
6,4,0.0034|
6,5,3.6|
6,6,8.7|
6,7,1.8|
7,0,8.3|
7,1,0.85|
7,2,8.9|
7,3,5.3|
7,4,7.8|
7,5,0.4|
7,6,4|
7,7,3.9|
];
constraint_x1_y1=[
0,0,2.5|
0,1,5.3|
0,2,5.6|
0,3,1.6|
0,4,8.1|
0,5,5.6|
0,6,3.1|
0,7,3.8|
1,0,0.43|
1,1,0.9|
1,2,2.1|
1,3,5.7|
1,4,8.1|
1,5,7.9|
1,6,7.6|
1,7,8.9|
2,0,2.6|
2,1,7.9|
2,2,9.5|
2,3,1.1|
2,4,2.9|
2,5,7.5|
2,6,8.6|
2,7,0.85|
3,0,8.9|
3,1,5.8|
3,2,9.2|
3,3,6.5|
3,4,8.6|
3,5,5|
3,6,0.56|
3,7,6.3|
4,0,2.6|
4,1,2.6|
4,2,4.2|
4,3,7.3|
4,4,7.7|
4,5,7.4|
4,6,3|
4,7,1.4|
5,0,0.44|
5,1,2.8|
5,2,6.8|
5,3,5.3|
5,4,8.9|
5,5,7.4|
5,6,1.9|
5,7,7.2|
6,0,7.4|
6,1,3.8|
6,2,8.3|
6,3,1.5|
6,4,2.5|
6,5,3.4|
6,6,4|
6,7,3.1|
7,0,6.9|
7,1,4.1|
7,2,2.3|
7,3,2.1|
7,4,7.1|
7,5,1.6|
7,6,1.2|
7,7,2.9|
];
constraint_x2_y2=[
0,0,1.4|
0,1,6.2|
0,2,6.7|
0,3,6.2|
0,4,3.8|
0,5,3.1|
0,6,5.8|
0,7,5.7|
1,0,3.7|
1,1,9.8|
1,2,0.21|
1,3,5.5|
1,4,5.1|
1,5,7.8|
1,6,5.4|
1,7,7.8|
2,0,3.5|
2,1,1.3|
2,2,3.4|
2,3,3.1|
2,4,7.5|
2,5,7.1|
2,6,1.8|
2,7,1.3|
3,0,7.5|
3,1,6.7|
3,2,3.5|
3,3,4.3|
3,4,6.2|
3,5,2.5|
3,6,1.5|
3,7,7.2|
4,0,2.4|
4,1,4.4|
4,2,1.3|
4,3,7.3|
4,4,5.8|
4,5,4.4|
4,6,1.4|
4,7,3|
5,0,3.3|
5,1,0.67|
5,2,0.00071|
5,3,7.8|
5,4,3|
5,5,8|
5,6,7|
5,7,7.9|
6,0,7.6|
6,1,6.9|
6,2,5.4|
6,3,3.8|
6,4,9.1|
6,5,1.4|
6,6,6.5|
6,7,5.6|
7,0,0.79|
7,1,4|
7,2,5.9|
7,3,6.7|
7,4,3.7|
7,5,8.7|
7,6,0.18|
7,7,4|
];
constraint_x3_y3=[
0,0,7.3|
0,1,8.7|
0,2,9.4|
0,3,7.1|
0,4,8.1|
0,5,5.7|
0,6,3|
0,7,0.54|
1,0,2.6|
1,1,9.4|
1,2,8.7|
1,3,5.6|
1,4,5.6|
1,5,5.5|
1,6,4.9|
1,7,4.4|
2,0,7.8|
2,1,9.2|
2,2,8.3|
2,3,5.8|
2,4,6.3|
2,5,1.3|
2,6,4|
2,7,6.1|
3,0,6.3|
3,1,8|
3,2,8.4|
3,3,3.3|
3,4,0.43|
3,5,9.2|
3,6,8.5|
3,7,7.7|
4,0,6.4|
4,1,7.6|
4,2,9.3|
4,3,5.3|
4,4,2.9|
4,5,1.9|
4,6,5.4|
4,7,8.4|
5,0,2.9|
5,1,6.8|
5,2,4.5|
5,3,2.3|
5,4,2.6|
5,5,9.2|
5,6,1.2|
5,7,1.8|
6,0,0.5|
6,1,7.7|
6,2,7.4|
6,3,6.6|
6,4,9.8|
6,5,8.1|
6,6,3.3|
6,7,3.6|
7,0,4.9|
7,1,3.5|
7,2,9.9|
7,3,5|
7,4,2.3|
7,5,0.06|
7,6,5.2|
7,7,8.4|
];
constraint_x4_y4=[
0,0,6.6|
0,1,8.6|
0,2,4.5|
0,3,4.6|
0,4,8.3|
0,5,5.9|
0,6,9.3|
0,7,7.8|
1,0,6.3|
1,1,1.7|
1,2,9.2|
1,3,0.33|
1,4,1.2|
1,5,2.4|
1,6,3.3|
1,7,2.2|
2,0,1.1|
2,1,8.8|
2,2,8.6|
2,3,7.5|
2,4,4.6|
2,5,9.9|
2,6,4.8|
2,7,0.99|
3,0,3.6|
3,1,7.1|
3,2,5.3|
3,3,5.6|
3,4,2.6|
3,5,4.1|
3,6,2.9|
3,7,6.7|
4,0,2.7|
4,1,1.5|
4,2,7.4|
4,3,3.5|
4,4,7.2|
4,5,2.4|
4,6,3.2|
4,7,2.9|
5,0,6.4|
5,1,7.9|
5,2,2.8|
5,3,0.96|
5,4,7.2|
5,5,1|
5,6,3.4|
5,7,3.3|
6,0,8.2|
6,1,1.4|
6,2,5.3|
6,3,2|
6,4,3.5|
6,5,3.7|
6,6,8.7|
6,7,2.8|
7,0,7.4|
7,1,6.8|
7,2,3.3|
7,3,5.9|
7,4,9.6|
7,5,6.5|
7,6,1.1|
7,7,7.5|
];
constraint_x5_y5=[
0,0,7.1|
0,1,0.13|
0,2,6|
0,3,3.3|
0,4,0.74|
0,5,8.2|
0,6,5.6|
0,7,7.3|
1,0,6.2|
1,1,5.3|
1,2,7.1|
1,3,2.7|
1,4,4.3|
1,5,7.7|
1,6,6.5|
1,7,0.46|
2,0,6.4|
2,1,0.59|
2,2,1.1|
2,3,1.2|
2,4,3.2|
2,5,4.1|
2,6,0.42|
2,7,4.9|
3,0,5.1|
3,1,4.5|
3,2,0.22|
3,3,4.5|
3,4,6.7|
3,5,9.3|
3,6,3.6|
3,7,4.7|
4,0,1.2|
4,1,8.5|
4,2,5.4|
4,3,7.5|
4,4,4.8|
4,5,6|
4,6,8.3|
4,7,2.9|
5,0,2.5|
5,1,0.74|
5,2,0.41|
5,3,2.4|
5,4,4.9|
5,5,2.6|
5,6,4.6|
5,7,0.94|
6,0,9.8|
6,1,8.4|
6,2,0.45|
6,3,5.2|
6,4,6.8|
6,5,8.2|
6,6,3.4|
6,7,6.2|
7,0,0.31|
7,1,3.1|
7,2,7.3|
7,3,6.7|
7,4,6.1|
7,5,6.6|
7,6,5.9|
7,7,1.8|
];
constraint_x6_y6=[
0,0,0.78|
0,1,4.9|
0,2,8.1|
0,3,4.8|
0,4,1.4|
0,5,6.8|
0,6,0.02|
0,7,3.7|
1,0,1.2|
1,1,3.1|
1,2,5.9|
1,3,6.6|
1,4,9.1|
1,5,6.6|
1,6,6.4|
1,7,6|
2,0,6|
2,1,0.47|
2,2,5.1|
2,3,1.8|
2,4,5.2|
2,5,9.9|
2,6,8.5|
2,7,3|
3,0,5.3|
3,1,6.4|
3,2,4.3|
3,3,3.6|
3,4,1.6|
3,5,4.2|
3,6,7.9|
3,7,0.85|
4,0,3.1|
4,1,2.9|
4,2,3.5|
4,3,9.9|
4,4,3.9|
4,5,6.7|
4,6,6.7|
4,7,2|
5,0,7.1|
5,1,6|
5,2,7.7|
5,3,5|
5,4,9.8|
5,5,7.6|
5,6,6.7|
5,7,5.3|
6,0,4.5|
6,1,0.076|
6,2,0.67|
6,3,3.9|
6,4,3.6|
6,5,5.2|
6,6,2.6|
6,7,6.5|
7,0,1.1|
7,1,4|
7,2,2.6|
7,3,7.6|
7,4,8.1|
7,5,2.5|
7,6,9.1|
7,7,2.8|
];
constraint_x7_y7=[
0,0,1.4|
0,1,0.69|
0,2,6.4|
0,3,5.4|
0,4,7.6|
0,5,2.3|
0,6,0.98|
0,7,0.48|
1,0,0.59|
1,1,3.4|
1,2,3.1|
1,3,4.5|
1,4,3|
1,5,2.5|
1,6,7.4|
1,7,3.7|
2,0,9.3|
2,1,8.7|
2,2,0.41|
2,3,2.6|
2,4,5|
2,5,3.1|
2,6,5.8|
2,7,9.6|
3,0,6.7|
3,1,4.1|
3,2,9.3|
3,3,5.8|
3,4,3.8|
3,5,5.5|
3,6,2.6|
3,7,4.8|
4,0,0.97|
4,1,7.1|
4,2,2|
4,3,8.6|
4,4,5.7|
4,5,5.6|
4,6,7.5|
4,7,2.4|
5,0,9.4|
5,1,4|
5,2,2.8|
5,3,4.5|
5,4,7.2|
5,5,6|
5,6,7.7|
5,7,0.84|
6,0,5.9|
6,1,9.6|
6,2,9.2|
6,3,9.9|
6,4,6.9|
6,5,4.6|
6,6,7.9|
6,7,0.53|
7,0,7.2|
7,1,5.9|
7,2,3.5|
7,3,3.4|
7,4,7.8|
7,5,0.63|
7,6,1.5|
7,7,0.33|
];
initial_distribution_y1=[0.15,0.059,0.21,0.16,0.062,0.19,0.075,0.097];
initial_distribution_y2=[0.052,0.035,0.18,0.12,0.26,0.056,0.25,0.042];
initial_distribution_y3=[0.18,0.021,0.16,0.16,0.07,0.24,0.14,0.029];
initial_distribution_y4=[0.24,0.23,0.1,0.039,0.15,0.051,0.11,0.077];
initial_distribution_y5=[0.056,0.052,0.19,0.062,0.16,0.38,0.072,0.018];
initial_distribution_y6=[0.075,0.11,0.19,0.095,0.18,0.16,0.13,0.054];
initial_distribution_y7=[0.19,0.009,0.17,0.14,0.19,0.061,0.15,0.1];
transition_y1=[
0.23,0.24,0.13,0.1,0.0093,0.18,0.09,0.026|
0.13,0.12,0.11,0.068,0.098,0.1,0.019,0.35|
0.16,0.12,0.016,0.2,0.097,0.18,0.14,0.096|
0.21,0.063,0.12,0.054,0.15,0.22,0.15,0.03|
0.075,0.11,0.11,0.22,0.035,0.14,0.16,0.14|
0.076,0.19,0.14,0.15,0.061,0.19,0.068,0.13|
0.071,0.2,0.15,0.18,0.094,0.26,0.0035,0.036|
0.15,0.18,0.1,0.13,0.066,0.095,0.15,0.14|
];
transition_y2=[
0.14,0.11,0.22,0.087,0.076,0.091,0.15,0.12|
0.15,0.048,0.23,0.1,0.11,0.2,0.079,0.079|
0.15,0.0077,0.15,0.17,0.0076,0.12,0.22,0.19|
0.099,0.075,0.14,0.14,0.2,0.21,0.053,0.089|
0.23,0.013,0.19,0.12,0.14,0.15,0.077,0.09|
0.086,0.22,0.12,0.22,0.14,0.14,0.035,0.037|
0.11,0.073,0.12,0.22,0.23,0.092,0.041,0.12|
0.12,0.11,0.21,0.19,0.035,0.18,0.069,0.081|
];
transition_y3=[
0.1,0.16,0.17,0.12,0.039,0.14,0.23,0.049|
0.014,0.16,0.049,0.18,0.17,0.19,0.042,0.2|
0.12,0.18,0.0064,0.059,0.39,0.082,0.026,0.14|
0.16,0.0064,0.17,0.13,0.13,0.13,0.17,0.098|
0.033,0.0042,0.16,0.2,0.3,0.14,0.036,0.13|
0.25,0.08,0.1,0.18,0.028,0.19,0.13,0.046|
0.062,0.18,0.19,0.16,0.089,0.088,0.15,0.078|
0.099,0.0037,0.16,0.1,0.076,0.21,0.21,0.16|
];
transition_y4=[
0.22,0.2,0.06,0.15,0.12,0.035,0.03,0.17|
0.21,0.19,0.17,0.15,0.13,0.11,0.028,0.0091|
0.15,0.13,0.13,0.064,0.09,0.13,0.062,0.24|
0.087,0.092,0.11,0.086,0.17,0.07,0.16,0.23|
0.19,0.16,0.089,0.18,0.071,0.099,0.16,0.049|
0.13,0.077,0.054,0.1,0.14,0.11,0.2,0.18|
0.17,0.23,0.21,0.0074,0.04,0.063,0.23,0.047|
0.17,0.15,0.19,0.19,0.063,0.062,0.1,0.082|
];
transition_y5=[
0.09,0.26,0.14,0.15,0.026,0.13,0.17,0.043|
0.08,0.16,0.039,0.21,0.072,0.19,0.022,0.23|
0.15,0.087,0.22,0.092,0.26,0.0045,0.15,0.034|
0.1,0.14,0.2,0.14,0.11,0.14,0.092,0.077|
0.012,0.14,0.24,0.14,0.15,0.023,0.15,0.14|
0.15,0.13,0.15,0.2,0.17,0.17,0.028,0.0045|
0.22,0.13,0.075,0.18,0.19,0.066,0.097,0.035|
0.3,0.071,0.11,0.0067,0.16,0.037,0.16,0.16|
];
transition_y6=[
0.21,0.037,0.15,0.14,0.21,0.041,0.17,0.033|
0.16,0.19,0.032,0.047,0.013,0.19,0.18,0.2|
0.14,0.19,0.27,0.064,0.11,0.056,0.075,0.093|
0.1,0.25,0.054,0.088,0.17,0.19,0.072,0.064|
0.18,0.068,0.29,0.11,0.1,0.063,0.029,0.16|
0.12,0.055,0.011,0.17,0.072,0.24,0.27,0.057|
0.069,0.12,0.14,0.14,0.0076,0.05,0.3,0.17|
0.21,0.087,0.029,0.07,0.13,0.19,0.075,0.21|
];
transition_y7=[
0.21,0.14,0.087,0.024,0.16,0.12,0.0049,0.25|
0.033,0.11,0.16,0.14,0.19,0.054,0.12,0.18|
0.29,0.036,0.18,0.17,0.04,0.13,0.029,0.13|
0.016,0.24,0.076,0.084,0.21,0.21,0.13,0.039|
0.19,0.22,0.043,0.089,0.065,0.034,0.24,0.12|
0.19,0.21,0.059,0.1,0.12,0.11,0.046,0.17|
0.087,0.2,0.18,0.086,0.17,0.12,0.093,0.07|
0.089,0.15,0.031,0.24,0.22,0.17,0.08,0.025|
];
